 Cubic Al_fcc                           
   4.30323877584917     
     4.0000000000000000    0.0000000000000000    0.0000000000000000
     0.0000000000000000    4.0000000000000000    0.0000000000000000
     0.0000000000000000    0.0000000000000000    4.0000000000000000
   Al
 256
Direct
  0.0128810934239276  0.1173383264825146  0.9059348800424656
  0.2721927268906720  0.3425685150081744  0.1594404454849312
  0.0982249510838165  0.3809177416553379  0.2890994526437770
  0.2742415403354733  0.0368209006594755  0.0991434197304956
  0.0589699715950630  0.0410151903383731  0.1791471859582691
  0.9918814845760179  0.0372743862898775  0.3316639563464344
  0.1638365132509838  0.1075850796563289  0.4800751055126639
  0.8792942250274325  0.9771084920547647  0.5225263413524067
  0.0580029544010152  0.2243372970662738  0.5069209382082087
  0.0747294756698539  0.0081193446224885  0.6092371415275474
  0.7973888974447570  0.3430015521852313  0.7151179829924469
  0.2474529845597241  0.7703888196133206  0.5971127072617951
  0.1391779949481218  0.8709375041425461  0.6634496868423918
  0.2495220697613555  0.0131484481339439  0.7037088909166976
  0.9203552994803579  0.2113879406290387  0.6434691042560501
  0.9478133306188704  0.0713787256902250  0.7305948324739876
  0.0373676624964133  0.3090951607340279  0.8755558246822501
  0.1820930205319136  0.3226781961209630  0.8309611073852510
  0.9726521859476530  0.1641581498665495  0.0357445196030474
  0.2140332779081088  0.3741686929882514  0.9991474280701726
  0.1724509317490334  0.2251515534325033  0.2469675898508173
  0.0499867141581424  0.2649149208247531  0.1698123791178443
  0.0551179040132793  0.1920038164472606  0.3625781032701202
  0.2424440449897123  0.3312995615269672  0.3477154809586314
  0.8880150964875991  0.3003510716578034  0.4505055176410711
  0.2342535714165312  0.4760284311311865  0.4730378784590189
  0.0837192983987838  0.2856995938199743  0.6703482288254714
  0.2999002680271934  0.1349568066359403  0.5484863660273910
  0.0971852499822037  0.1759170243119607  0.7656984806530390
  0.2639934980857634  0.5413316156163867  0.7144318993120372
  0.0388704654851676  0.4726614987313632  0.8436410559656405
  0.2095674958700609  0.5209962076666267  0.8606425284225487
  0.7738207633151506  0.5113731026351463  0.9047157142433021
  0.0624328251127611  0.7522391793965015  0.0994884637974986
  0.8664636427428010  0.5806784281732356  0.9974239208880877
  0.1532022180618837  0.4663617029215371  0.1861604143579967
  0.8348964547776526  0.5233280469105586  0.1326941041921536
  0.0998661367579830  0.7792979181673367  0.2695905810807061
  0.2125355235003296  0.4906043409827061  0.3295523387590602
  0.0698491501175341  0.5054687576606041  0.3911731456377969
  0.9364657649583324  0.4751683883388512  0.4505937193173780
  0.1059414287619959  0.4309722047070837  0.5304286977448279
  0.8216149145661756  0.5753757054250188  0.4005668080424346
  0.2883401664968267  0.4108039617833254  0.6100940680886622
  0.1241743869334950  0.6073509874799775  0.7715554153221486
  0.3103072502260236  0.5810389514445270  0.5744127012091107
  0.8652666430820040  0.8069122478436459  0.5535416594425704
  0.0233017321536161  0.6890645665511902  0.8254151108876978
  0.8364306580253772  0.7158760317557685  0.9082117568657118
  0.0654005952112223  0.9667094641788000  0.9156829526137820
  0.0407926512225014  0.8586654926557927  0.8123640632867875
  0.9617544466995223  0.9823039778527729  0.0435913582074937
  0.0014114619530513  0.6547173023049556  0.3262365985406360
  0.0574520420393331  0.9083733556918204  0.2613110499800296
  0.8198563620774909  0.9007456097263005  0.2910550704760134
  0.1200911904330730  0.8043685587653859  0.4282125451405370
  0.9326629210257706  0.7746612851965365  0.2534463951375366
  0.2797897017548329  0.8515790945341654  0.4415825985567183
  0.0152051461383968  0.8870386696213077  0.5492052830812962
  0.9732870689963833  0.7416265756847590  0.4813668054891401
  0.0366139208756632  0.5608499793520130  0.6365786512150524
  0.1523917801644801  0.7551619089028990  0.7955710228506326
  0.9398733452741161  0.7263108911553622  0.6520424641949925
  0.9388699034102015  0.8264664462957122  0.9707585356852957
  0.1517654302882158  0.1249178905322549  0.0751656320356019
  0.2884766592460815  0.1843826274119499  0.1746264113078460
  0.2868348588224699  0.0269183983885765  0.2570158055995124
  0.3949343639313349  0.9056653688301638  0.1429139755111649
  0.0973757326677870  0.9057451419819410  0.1051513052567452
  0.1369017239950598  0.0494328006567441  0.3201795161945443
  0.0933227738700228  0.9576368609928356  0.4503287780365587
  0.2205724240724194  0.9210196337447666  0.3393359159304485
  0.2460252854721638  0.9192996691414199  0.5737713021715569
  0.4704620955265041  0.0807508521289776  0.4640884155431055
  0.3718655213244175  0.0110086989261561  0.6225556035079377
  0.4863814587491258  0.1269967515170103  0.7520898011780690
  0.1005801246372733  0.0185721011762418  0.7612566171631187
  0.3181657941926881  0.1682930358527449  0.7069490556878231
  0.1817965046601101  0.1116336435212925  0.9147251852722851
  0.4788439674142752  0.1815954058901077  0.9054036271913433
  0.3486858878190439  0.3378121083757395  0.8995696156942319
  0.5394585823620541  0.1590891160764817  0.1786161314214192
  0.4142032158290028  0.4120862721403072  0.0241316744993707
  0.5449865090471528  0.9726506235380785  0.2089481182626849
  0.4384895920604546  0.2838973946506463  0.1983449719254471
  0.5185100337230103  0.4308264398605632  0.2453188225336688
  0.2471977771010877  0.1656422974734498  0.3423468126083857
  0.3990135566095491  0.1470269464264007  0.2817151218156108
  0.0461060972372355  0.3485590378137868  0.4284167755657119
  0.1866284411565883  0.2084565886829180  0.6047375218935666
  0.2869920007566857  0.3134761831994818  0.7102135343669733
  0.4191233444912301  0.2631987117163211  0.7940794608746456
  0.1084465391052096  0.2497432836237728  0.0111787183141316
  0.4645673395966667  0.2375265378075371  0.6386704817898509
  0.0578186546199482  0.4612371852958236  0.0106475996650676
  0.3812427759078076  0.2443817541966108  0.0483416643052980
  0.2636760112211605  0.5052849520863356  0.0798655303885409
  0.3383607149551494  0.5137065720904803  0.9453812236198291
  0.1327451435683190  0.6678680751168857  0.1873933874168558
  0.5576603935444112  0.5141171297028436  0.0397458972076192
  0.3623843248355316  0.7367542957098359  0.1110291114481417
  0.3611804040010726  0.4110646218719709  0.2839740664361018
  0.2883684141863726  0.5560474169965981  0.2038252227016640
  0.4689463733806875  0.3905807693993562  0.3953697163269070
  0.2507398080259750  0.2711238994317364  0.4834646688167966
  0.2476444634849874  0.7518868727520551  0.2876533098180026
  0.3363635793002059  0.5871427770556600  0.3855173305383803
  0.2335650372093503  0.6812784280838909  0.4608146399231966
  0.3064511049817080  0.6578494923715311  0.9157094128140423
  0.4709915284318822  0.7378016282363348  0.8089909220292656
  0.9981028727611484  0.6399527279120780  0.9758402196132044
  0.3803867364869064  0.4253784405003008  0.7897771462477876
  0.1127104546837553  0.8079254463154748  0.9719689615015311
  0.2158790221816072  0.7290156158647693  0.0750904626715820
  0.2248333742181270  0.9580662486919134  0.9968003311572632
  0.2251767213587719  0.8953085804387465  0.1890583666454369
  0.1711911584955170  0.6432631647052206  0.3456584839853047
  0.4883731918031980  0.0369792995316649  0.0027995800107694
  0.3596407403955652  0.8602185440969254  0.2975467256414945
  0.3796040336118069  0.7560419397801513  0.5432931236534099
  0.0865200935314743  0.6212306800258801  0.4725024027928578
  0.4995007543509722  0.9312279418158631  0.7089706015547192
  0.3843768505340902  0.0185734680826839  0.7739821079647262
  0.4011294495089310  0.5887516273058231  0.7737464774806767
  0.2945912920379715  0.6932549062673766  0.7277680077574264
  0.2641468963861412  0.8138237774747368  0.9484335875821379
  0.2146735772752223  0.9583826755439657  0.8478950727100667
  0.5083086089850808  0.9133809508342025  0.8880916314251169
  0.3457845865472390  0.0366828006074721  0.9248122394644452
  0.7105531700780698  0.3630484492018916  0.8747354889651188
  0.3078520791228195  0.0239849838759920  0.4478443549372443
  0.6711162948155450  0.0156366959401393  0.0201418173083047
  0.4924855603326777  0.7762094278842674  0.2218569917819003
  0.5253179874142027  0.8755670690754572  0.3440593947053432
  0.4427175216756613  0.9952000854215322  0.3115903344402397
  0.5951315549455543  0.9658866437951864  0.4615105317907839
  0.4373519460528855  0.9069079775842689  0.4887876936678230
  0.8257191616865422  0.1379248183219082  0.5160697167539271
  0.5245521910796326  0.0679034268412956  0.6070889926617021
  0.7209768188435667  0.0367318902299430  0.4972287018397009
  0.5737538576572906  0.0389380544497565  0.8184557552581536
  0.5874819563217337  0.2397644209933324  0.8078697729660089
  0.3026486957538982  0.2049689375928362  0.9006652789279631
  0.5957171636674142  0.1634520109289263  0.0266273807922997
  0.4121067906826140  0.0891619112063529  0.1363457177979928
  0.6946380856154120  0.2863624718124903  0.0443912264768866
  0.6739743067600000  0.2800170613388617  0.1904464587946627
  0.8031242844292664  0.0924921373675642  0.2355894091743171
  0.5755575137392082  0.1038613941033500  0.3348289168583566
  0.6423342466248052  0.0798571919348190  0.1450955371711680
  0.5442079334695968  0.2820702052847266  0.3097417658705109
  0.5929314421302977  0.2078004788913479  0.5258934429831802
  0.3913062306655485  0.2072859608312815  0.4333127815898114
  0.6232269320746624  0.4333823276331754  0.4355923136909122
  0.5898547321705006  0.3644890102369918  0.5683495644024149
  0.7647469655880853  0.3031354002363331  0.5510679666832681
  0.6537666331119441  0.3243045428172073  0.6998370866526391
  0.5294801255003911  0.3164735304068872  0.9514588228376158
  0.5541126534548565  0.4127611909737978  0.7691578886710304
  0.5370545919546540  0.3668634170587104  0.1178109501204270
  0.5929285280229908  0.7317667936686180  0.8930510775974674
  0.6814280577797323  0.8226927809975485  0.9880516610337100
  0.4137794135893987  0.5625504776846947  0.0746442494899879
  0.6357242883454259  0.5678445871844240  0.1554457692203828
  0.4750900983715651  0.6102299462284946  0.2089283864250533
  0.6796924812436523  0.6961357408562175  0.4211962209603026
  0.3767418998030716  0.6990848935211615  0.2985708192080473
  0.6423951024029556  0.5193851083422735  0.3052582688862865
  0.4049558471607720  0.3491492402326915  0.5297973379658923
  0.5225152897549585  0.5202640078910422  0.3630353189658216
  0.6262280530901496  0.7074522071339419  0.6141945682106872
  0.4520661136445714  0.5423562867084658  0.4988494100476129
  0.4435701931451688  0.4076130419098897  0.6603176538537955
  0.7190498903974230  0.6844492475864721  0.8317716564218244
  0.4855626119865649  0.4750108347692070  0.9024166987423990
  0.6110069934377845  0.5578961092960198  0.8692822050378752
  0.4542608705903642  0.6847922187545058  0.9603617883214529
  0.6393053133450047  0.7860994491437404  0.1465273134445259
  0.5333811414172545  0.6845770292702023  0.0777120107468035
  0.6903044835240485  0.6195871334103709  0.0016875361742127
  0.4120966620343152  0.8948146924267854  0.9824127543247215
  0.5713520449365229  0.6594180320592404  0.3118137920856057
  0.4296979349212659  0.7810903474056189  0.4068191617417296
  0.5148793941275638  0.6724285581522537  0.4907870662542478
  0.4478797910748520  0.6502659156383044  0.6190062293338696
  0.6098514662379861  0.8671514816445436  0.6007552792861115
  0.6659498346685025  0.9326090202221351  0.8853570542098076
  0.4355536649764676  0.7924156573079042  0.6781021640864063
  0.2875668877716625  0.8621533194692034  0.7686560789222902
  0.6959748380339723  0.1737513930762196  0.9144504013113255
  0.5388251995835256  0.8646354237506686  0.0594471530862750
  0.6069210570687370  0.8365556792057852  0.7558594351504392
  0.6885712120663530  0.9329874042630072  0.1902787642247777
  0.8610842774366220  0.0892646209370598  0.9516359901197627
  0.8066466909074811  0.0063693890878855  0.1042364166435263
  0.8010702522370452  0.8383738123883857  0.1253861547172902
  0.6835340310629804  0.9746736006185344  0.3475588786532263
  0.9204791078144543  0.9869484683635311  0.1970268563860810
  0.7291172427743458  0.1256901566940534  0.3603870674642594
  0.8385909283507690  0.0139897536268203  0.3780403200037817
  0.7606801551990695  0.9076357050402439  0.6186249489415120
  0.9669305258953718  0.0974616428312389  0.4943017839660994
  0.6987885278195238  0.1654196182999007  0.6280062603432781
  0.8295785773589254  0.0703723700206997  0.6539494661592857
  0.6646126563237923  0.0131779831510343  0.6969071165552295
  0.7775352184379080  0.2188258573670717  0.8006862766942505
  0.8184541408902168  0.1789136667544383  0.0963183143332982
  0.9156432784730066  0.1938439272290681  0.8169798969663599
  0.8633244010445620  0.3224286176917313  0.1475844790061104
  0.9878858058127901  0.3377657705698073  0.0272207509335828
  0.9996218232231534  0.4167520210269831  0.1686957846080099
  0.9448410122048209  0.1747040008983957  0.2246195959862918
  0.8940310158794912  0.1759190618506228  0.3871146291241214
  0.8055635921512015  0.4200368289617677  0.3615021307779753
  0.7681973652454914  0.4083609887820015  0.2128329267492884
  0.7724916821999377  0.2619500979835866  0.3025318900895040
  0.8036733605153863  0.4789720809676558  0.5351243423264375
  0.8510574441444599  0.4863686477248285  0.7314845610849396
  0.6760448453119410  0.2691322130637778  0.4171783456294505
  0.9326565645819574  0.4060649167901217  0.6151224731950428
  0.6998709067572740  0.4810490668494803  0.7307137963005296
  0.1227126597882042  0.4451482952110947  0.6869135584960032
  0.8923481285387731  0.4050070313039881  0.8911129990278549
  0.8172929297940823  0.2529662868186181  0.9322261692859795
  0.8091309453582708  0.4005049925570777  0.0148989830046977
  0.6848374891471315  0.4371131672027833  0.0703341848030217
  0.7631904954667559  0.6684930765755220  0.1225855377166053
  0.0161492211529012  0.5629990662647546  0.1282925283667732
  0.9473792959688702  0.3219120916746400  0.2944664727049471
  0.9495170141542227  0.4964859936430595  0.2824067913306933
  0.7699787233853765  0.6408780761149654  0.5745263664107537
  0.8370832456379310  0.6185156999146036  0.2543224432373233
  0.6704937628452751  0.5604804865201789  0.4887201051375384
  0.8276085001251007  0.7609421349024212  0.3614457151366217
  0.5981251287683532  0.5200026118040069  0.6157630428109860
  0.9641166868527249  0.3532258262993976  0.7492925464736641
  0.6031364941340357  0.6348404639453604  0.7386849079363004
  0.8379306865068215  0.6396408925001438  0.7319801216600645
  0.7562628106757068  0.8258309120519572  0.8275609503698073
  0.9171227184155879  0.5826431630893790  0.8495754674028996
  0.9093347014178639  0.7790340453219665  0.7828701387465573
  0.7524810622272047  0.0571213134169293  0.8428032490779284
  0.6761572033344744  0.8129224125221619  0.2798335513684080
  0.9099238061356472  0.6808880758784016  0.1290506252111224
  0.6975664340527283  0.6655843078891991  0.2439940029706802
  0.9541085098595552  0.8450897740944689  0.1311766523878653
  0.7545311022052328  0.8650201512431313  0.4540542649387950
  0.9439454089635692  0.8918360668878356  0.3896404273705906
  0.5863531976455678  0.8203886035156448  0.4659842570031514
  0.9387364576880897  0.9205281016460836  0.6882121735601470
  0.7894950127457363  0.9552733202560996  0.7763742578588073
  0.9029569809121917  0.5912786007273925  0.5564247752438437
  0.7717104108347059  0.7664684097724745  0.6688591007985438
  0.0994627011352803  0.7172112978878864  0.6091486728995514
  0.8077344229270091  0.9304823478964880  0.9645432267640304
  0.9204129579171201  0.9554420394889853  0.8517086467584254

  0.18710128E-02  0.49132609E-02 -0.81482166E-02
  0.34913913E-03 -0.60006345E-02 -0.55736419E-03
 -0.14161503E-01 -0.13837215E-01  0.54770852E-03
  0.50545609E-02 -0.19084558E-02  0.20874778E-02
  0.21352112E-02  0.41254903E-02  0.70782246E-02
  0.52681748E-02  0.30639718E-03 -0.78898330E-03
  0.17317254E-02  0.70419170E-02 -0.11808525E-01
 -0.10676772E-02 -0.83796509E-02  0.46969956E-03
 -0.60134202E-02  0.32340799E-02 -0.12776889E-02
 -0.35035248E-03  0.19787785E-02  0.84891014E-02
 -0.75519507E-02 -0.36767743E-02 -0.10956837E-01
  0.36598220E-02 -0.11014440E-01  0.35241153E-02
  0.69361560E-02  0.83740309E-02 -0.36110379E-02
 -0.15156422E-02 -0.69363896E-02  0.89247824E-02
  0.45411497E-02 -0.16195225E-01 -0.23453204E-02
 -0.38068040E-03 -0.46773776E-03 -0.38891416E-02
  0.80270343E-02  0.64271766E-02 -0.11052211E-01
  0.54749098E-02  0.41114622E-02 -0.40872452E-02
  0.60638601E-02 -0.26188948E-02  0.45012159E-02
  0.36653970E-02  0.17984576E-02 -0.49742049E-02
 -0.25379703E-02  0.65976932E-02  0.62339316E-02
  0.19478860E-02  0.54113085E-02 -0.19894649E-01
 -0.40545631E-03 -0.80204657E-02  0.16145651E-02
  0.87605470E-03 -0.67098112E-02  0.26653587E-02
 -0.61074295E-03 -0.45600293E-02  0.49819706E-02
  0.86803374E-02  0.52401660E-02 -0.59978034E-02
  0.85712319E-03  0.34343481E-02 -0.57251808E-02
 -0.25959139E-02 -0.45442847E-02 -0.56086715E-02
 -0.10550467E-02  0.40688256E-02 -0.13750635E-02
  0.68582302E-03 -0.64942381E-02  0.56363471E-02
 -0.71291616E-03  0.19920402E-02 -0.30036693E-02
 -0.99346784E-02  0.54937538E-02 -0.61688153E-03
 -0.77710376E-02 -0.30928236E-02  0.70314033E-02
  0.46847471E-02 -0.15635935E-01 -0.19193949E-02
  0.52522013E-02  0.74894902E-02 -0.29450930E-02
 -0.44230503E-02 -0.70441500E-02  0.73301092E-02
  0.14489014E-02  0.49931452E-02 -0.65466111E-02
 -0.14427674E-02 -0.39993155E-03  0.95727222E-02
 -0.57416669E-02  0.61044705E-02  0.33413494E-02
  0.19601398E-02 -0.55928424E-02  0.41153855E-02
  0.27057628E-02  0.15783635E-01 -0.45976317E-02
  0.29665305E-02 -0.52978529E-02  0.65514762E-02
 -0.37638482E-02  0.30220489E-02 -0.15238166E-01
 -0.33543906E-02  0.38313119E-02 -0.35565543E-03
  0.84020665E-02  0.19106018E-02  0.90098091E-02
 -0.71462946E-02  0.83710008E-04  0.48936027E-02
 -0.25359849E-02 -0.42994263E-02 -0.58408550E-02
 -0.71067574E-02 -0.37290233E-02  0.44930060E-02
 -0.30173318E-02  0.15504132E-03  0.12136478E-01
  0.74490032E-02  0.45620092E-02  0.45154242E-02
 -0.51312975E-02  0.99663113E-02  0.47577821E-02
 -0.77636842E-02  0.36154893E-02 -0.22328999E-02
 -0.33759636E-02  0.56551514E-03  0.17964848E-01
  0.62488407E-02  0.30166371E-02 -0.12312816E-02
 -0.15152730E-02 -0.52865276E-03 -0.46090282E-02
  0.15015085E-02 -0.87902027E-02 -0.19098788E-02
 -0.17495442E-02  0.26083741E-02 -0.76575548E-02
  0.78654549E-02 -0.74147733E-03  0.66949496E-02
 -0.67582521E-03 -0.61612466E-02 -0.53371298E-02
 -0.11778513E-01 -0.76708961E-02  0.18989041E-02
  0.82664032E-02  0.15878699E-01  0.62130298E-02
 -0.21025863E-02  0.15768731E-01  0.12484749E-01
 -0.67560276E-03 -0.28145603E-02 -0.83857980E-02
  0.22086387E-02  0.40331009E-02 -0.13390475E-02
  0.81621184E-02  0.83261647E-03 -0.95866050E-04
  0.23593360E-02  0.13619456E-01 -0.29004699E-02
 -0.20626189E-02 -0.31085153E-02  0.86694540E-03
 -0.73911735E-03 -0.44578833E-02 -0.58328514E-02
 -0.16734215E-03  0.31339361E-02  0.67502880E-03
  0.77000820E-02  0.63419384E-02  0.53711548E-02
 -0.19793978E-02  0.49519547E-02 -0.19069657E-03
 -0.10992735E-01 -0.26203281E-02 -0.12104150E-01
  0.71252076E-02  0.67737240E-02  0.41968089E-02
 -0.74985255E-02 -0.49573894E-02 -0.58413153E-02
  0.94801464E-02  0.11698513E-01 -0.15458090E-02
 -0.40600779E-02 -0.70304975E-02  0.16062087E-01
  0.26894359E-02 -0.60340031E-02  0.31252724E-02
  0.25819181E-02 -0.18764125E-02  0.18966679E-02
  0.74869583E-02  0.83992828E-02  0.73831808E-02
 -0.13775776E-02  0.26000224E-02  0.14090942E-01
 -0.18790071E-02 -0.32043254E-03  0.11210983E-01
  0.95433182E-03 -0.13702858E-01  0.47131726E-02
 -0.83458926E-04 -0.12290290E-01  0.30463743E-02
 -0.58026800E-02 -0.81272142E-02 -0.13177317E-02
 -0.89709005E-02 -0.36169076E-02 -0.82496730E-03
  0.78014840E-04  0.25791512E-02  0.39984876E-02
 -0.18017954E-02 -0.97008783E-02  0.26004012E-02
  0.74944967E-02 -0.63300503E-03 -0.14215513E-01
 -0.13181120E-01 -0.75619400E-02  0.12000294E-02
  0.10967127E-02 -0.10901403E-01 -0.43851991E-03
  0.19663714E-02 -0.60212090E-02 -0.35086764E-03
  0.38294668E-02  0.13093873E-01 -0.10556700E-01
 -0.64128244E-03  0.99860012E-03  0.26244062E-02
 -0.17679189E-02 -0.65146313E-02 -0.20050127E-02
 -0.93099223E-02 -0.38070105E-02  0.27952725E-02
 -0.70349725E-02  0.47450768E-02  0.21627674E-02
  0.12203412E-02 -0.32097157E-02  0.96569897E-02
 -0.70277484E-02 -0.72855314E-02 -0.12299329E-01
  0.20035417E-02 -0.53906278E-02  0.18933429E-02
  0.31008118E-02 -0.63135890E-03 -0.29304351E-02
  0.14324370E-02  0.44065035E-02 -0.15872704E-02
  0.31629049E-02 -0.73535746E-02  0.69910091E-02
  0.70108307E-02  0.22456452E-02 -0.96730327E-03
 -0.14360232E-01 -0.79974814E-02 -0.33591906E-02
 -0.37318554E-02  0.33255659E-02 -0.12041497E-01
 -0.68851405E-02  0.99229910E-02 -0.11098201E-02
  0.68228779E-02 -0.69797569E-02 -0.84104896E-02
 -0.54759654E-02 -0.45088886E-02  0.60502504E-03
  0.65784387E-02  0.50949280E-02  0.64819736E-02
  0.33156082E-03  0.26685492E-02  0.19146747E-02
 -0.16143415E-01  0.10870200E-01 -0.24092046E-02
  0.30174375E-03  0.59542873E-02  0.10827121E-01
 -0.22880165E-02 -0.75234712E-03 -0.84772572E-02
  0.49387732E-02  0.72613728E-02  0.27702975E-02
  0.64835692E-02 -0.12463766E-01  0.62188010E-02
 -0.63694289E-02  0.58915710E-03  0.24282726E-02
 -0.28675988E-02 -0.27391415E-02  0.62394092E-02
 -0.37485661E-02 -0.76240100E-02 -0.88607575E-02
  0.51823620E-02  0.96280057E-02  0.79562321E-02
  0.35545761E-02  0.37956873E-02  0.10503285E-01
 -0.87968720E-02 -0.55709767E-03  0.59152692E-02
  0.50020503E-02  0.13857334E-02  0.13370775E-02
  0.28700106E-02  0.90539775E-02  0.14786689E-02
  0.69299341E-02 -0.10193856E-01  0.94875085E-03
  0.82222304E-02  0.18150582E-02 -0.36209473E-03
  0.10596847E-01  0.41443772E-02 -0.18990848E-02
 -0.76885327E-02 -0.68987170E-03  0.28218971E-02
  0.12104418E-01  0.99334977E-04  0.25498707E-02
 -0.18151801E-02  0.15664969E-02  0.92340535E-02
 -0.42016328E-02 -0.49492231E-02  0.23430032E-02
 -0.80511800E-02  0.53286472E-02  0.69470013E-02
  0.40989563E-02 -0.75500450E-02 -0.12237982E-01
  0.72516349E-02  0.40410204E-02 -0.17023822E-02
 -0.87425177E-02 -0.71593522E-02 -0.10563726E-01
 -0.13602519E-02 -0.19648235E-02 -0.28928930E-02
  0.37324581E-02  0.51651250E-02 -0.10178364E-02
 -0.69947704E-02  0.88206224E-02 -0.83519199E-02
 -0.55168221E-02  0.34750252E-02 -0.61998089E-02
 -0.34636534E-02  0.67581928E-02  0.35688445E-02
  0.24846641E-02 -0.39429996E-02 -0.55976676E-02
 -0.26428041E-02 -0.58883104E-02 -0.88896758E-03
 -0.17301770E-02 -0.79213101E-02  0.13375602E-01
 -0.60295610E-02 -0.52399390E-02  0.20064751E-02
  0.26730130E-02  0.12003402E-01  0.77816051E-03
  0.11433253E-01 -0.10281367E-01  0.73080592E-02
  0.38848047E-02 -0.12468785E-02  0.58410317E-02
  0.11986875E-02 -0.40446068E-02  0.68138158E-02
 -0.20975763E-02 -0.33085959E-02 -0.46392317E-02
 -0.36884721E-02 -0.75865962E-02 -0.11118355E-02
  0.11669855E-02  0.44548805E-03 -0.15442374E-02
  0.24641546E-02  0.15563608E-02  0.26907240E-02
 -0.17057207E-02 -0.15035872E-01 -0.89765919E-02
  0.38250366E-02 -0.46971028E-02 -0.17989272E-02
  0.91748682E-02 -0.14944076E-02  0.57962971E-02
 -0.21895810E-02 -0.13265571E-02 -0.10111580E-02
 -0.44034008E-02  0.11405344E-02  0.27062090E-02
  0.34699330E-02 -0.80025860E-02 -0.30495970E-02
 -0.28508727E-02 -0.21507913E-02  0.60485402E-02
  0.23242875E-02 -0.21370480E-02 -0.51553564E-03
  0.16657174E-02 -0.12836438E-02  0.33437671E-02
  0.23955061E-02  0.11247147E-01 -0.34453022E-03
 -0.40300153E-02 -0.43809561E-02 -0.70265394E-03
 -0.56796919E-02  0.27400114E-02  0.11052546E-02
  0.57352872E-02  0.11625949E-01 -0.37251338E-02
 -0.14343886E-02  0.24067906E-02 -0.91554745E-02
  0.15161518E-02  0.13182856E-02  0.12241254E-01
  0.41825699E-02 -0.13245848E-02  0.36907534E-03
  0.12340392E-01 -0.11981884E-01 -0.99666611E-02
  0.99679245E-02 -0.55821881E-02  0.15771531E-02
 -0.91848905E-02  0.10353796E-02  0.12088200E-01
 -0.73629870E-02  0.14906311E-02 -0.15653618E-01
  0.38754802E-02  0.31350312E-02 -0.11326240E-02
  0.65216883E-02 -0.19841984E-02  0.28449795E-02
  0.30407771E-03  0.38940756E-02  0.10524836E-01
  0.52044863E-02 -0.96934658E-02 -0.48623556E-02
  0.80792697E-03  0.10269469E-01 -0.53348533E-02
  0.51119706E-02  0.52415685E-02 -0.59552067E-02
 -0.12084364E-02 -0.24032870E-02 -0.14529563E-01
  0.21256011E-02  0.61035687E-03 -0.22885164E-02
  0.29061977E-02 -0.15388367E-02 -0.18375711E-01
 -0.43894760E-02 -0.36789342E-02  0.11462909E-01
 -0.61043310E-02 -0.14543527E-02  0.28229728E-02
 -0.30930089E-02  0.12727084E-01 -0.58048658E-02
 -0.71377532E-02 -0.30255351E-02 -0.56288068E-02
  0.46250533E-02 -0.18848178E-02  0.96424305E-02
 -0.76476546E-02  0.55777944E-02 -0.23400374E-02
 -0.77222083E-02  0.48054028E-02  0.31733955E-02
  0.20475495E-02  0.35698341E-02 -0.67790309E-02
 -0.72084847E-02  0.49576463E-02 -0.15060183E-03
 -0.42399530E-02  0.18014599E-02  0.17921246E-02
 -0.23708992E-02  0.50699899E-02  0.68577387E-02
  0.55020243E-02 -0.56919152E-02 -0.76741165E-02
  0.24407473E-02 -0.32340990E-02  0.44316704E-02
 -0.61368462E-02  0.45136348E-02  0.31252672E-02
  0.94811747E-02  0.35436637E-02  0.34849940E-02
 -0.77215770E-02 -0.32467315E-03 -0.19581583E-02
 -0.16181358E-01  0.13244132E-01  0.46281391E-03
 -0.76109121E-02 -0.56195140E-02 -0.49909771E-03
  0.15788366E-02 -0.44469302E-02 -0.57236195E-02
  0.26812490E-02  0.44204108E-04  0.61822975E-02
 -0.12806099E-02  0.34135198E-02  0.66938497E-02
 -0.41313366E-02  0.38155642E-02 -0.93162066E-02
  0.74267841E-02 -0.58851696E-02 -0.47214862E-02
  0.91531553E-02 -0.79173700E-03  0.60123517E-02
 -0.36363185E-02  0.60320119E-02 -0.32407404E-02
  0.39022955E-02  0.55798806E-02 -0.87449603E-02
  0.24211440E-02  0.85400012E-02 -0.28149050E-02
  0.35401957E-02  0.49883443E-02 -0.10438123E-01
  0.67237090E-02  0.68248938E-02  0.97793138E-02
 -0.21986107E-02 -0.81922920E-02  0.34968962E-02
 -0.47944961E-02 -0.12132813E-01  0.21913770E-02
 -0.90476972E-02  0.37645840E-02  0.32266441E-02
 -0.50394621E-03 -0.16589918E-03  0.53873554E-02
  0.81523955E-02  0.44317599E-02 -0.23370963E-02
  0.44069224E-02 -0.24902379E-02 -0.44766517E-02
  0.13250338E-01  0.17344728E-01  0.57867351E-03
 -0.59266499E-02  0.73523521E-02 -0.21927902E-02
  0.39566219E-02 -0.61328073E-02 -0.59390365E-02
 -0.21161016E-02  0.26137264E-02  0.39219078E-02
  0.66407496E-02  0.16848147E-02  0.82429854E-02
  0.24953089E-02 -0.23663092E-02 -0.10345003E-01
 -0.16706132E-02 -0.13748684E-02 -0.35694530E-02
  0.64357869E-02 -0.33369349E-02 -0.10682408E-01
  0.15607750E-01  0.43054979E-02  0.54726047E-02
  0.76796402E-02  0.44996526E-03  0.71067220E-02
  0.45687569E-03 -0.36875435E-02  0.26739256E-02
 -0.92228931E-02 -0.74188133E-02  0.18022637E-02
 -0.69907538E-02  0.91993839E-03 -0.23228380E-02
 -0.41034346E-02  0.14463856E-02 -0.20862489E-02
 -0.15347205E-01  0.14278575E-02 -0.49211907E-02
  0.23851696E-02 -0.52109958E-02 -0.10789321E-01
  0.90710526E-03  0.63260309E-02 -0.61176418E-02
 -0.60808086E-02 -0.55107987E-02 -0.33112627E-02
 -0.50645981E-02 -0.35613381E-02  0.41301163E-02
 -0.11064558E-01 -0.91701853E-02 -0.34155923E-02
 -0.44583136E-03 -0.39492151E-02  0.10348296E-01
  0.16021265E-02  0.11123678E-01 -0.30270313E-02
  0.73827653E-02  0.12594816E-02  0.65410546E-02
  0.13513181E-01  0.39296575E-02 -0.75053781E-02
  0.74566788E-02  0.10802133E-01  0.77693693E-02
  0.12383312E-02  0.75827445E-02  0.20660485E-02
 -0.97665593E-02 -0.55302035E-02  0.10426796E-02
  0.40504095E-02 -0.30671521E-02 -0.82702793E-02
  0.48061701E-02 -0.54157375E-03 -0.34900096E-02
 -0.20498858E-02  0.28045211E-03 -0.39289019E-02
  0.26233879E-02  0.65003434E-02 -0.28929188E-02
 -0.39332587E-02  0.43190247E-02 -0.78270724E-02
 -0.84526143E-02 -0.58242319E-02 -0.24947033E-02
 -0.58863213E-03 -0.81675506E-02  0.57574282E-02
 -0.18457644E-02  0.17809652E-02  0.99242621E-02
  0.58163342E-02  0.13274974E-01 -0.20104799E-02
  0.35863998E-02 -0.23796368E-03 -0.97592637E-02
 -0.39714365E-02 -0.10327831E-02  0.76401102E-02
  0.20671986E-02 -0.45118989E-02  0.13255430E-02
  0.14201888E-02 -0.75301573E-02  0.11245583E-01
 -0.63050370E-04  0.85400754E-03 -0.22123328E-02

           1
   2.00000000000000     
  0.54620120E+00 -0.63274269E-03  0.46277567E-18  0.00000000E+00
  0.13098489E-01  0.11790921E+00  0.90498813E+00
  0.27223329E+00  0.34187129E+00  0.15937568E+00
  0.96579504E-01  0.37930997E+00  0.28916309E+00
  0.27482884E+00  0.36599154E-01  0.99385967E-01
  0.59218065E-01  0.41494537E-01  0.17996962E+00
  0.99249360E+00  0.37309987E-01  0.33157228E+00
  0.16403773E+00  0.10840329E+00  0.47870305E+00
  0.87917017E+00  0.97613485E+00  0.52258092E+00
  0.57304246E-01  0.22471307E+00  0.50677248E+00
  0.74688768E-01  0.83492620E-02  0.61022350E+00
  0.79651142E+00  0.34257434E+00  0.71384489E+00
  0.24787822E+00  0.76910903E+00  0.59752218E+00
  0.13998392E+00  0.87191050E+00  0.66303011E+00
  0.24934596E+00  0.12342498E-01  0.70474588E+00
  0.92088294E+00  0.20950619E+00  0.64319660E+00
  0.94776910E+00  0.71324379E-01  0.73014295E+00
  0.38300336E-01  0.30984194E+00  0.87427165E+00
  0.18272916E+00  0.32315591E+00  0.83048620E+00
  0.97335676E+00  0.16385386E+00  0.36267523E-01
  0.21445917E+00  0.37437766E+00  0.99856947E+00
  0.17215604E+00  0.22591815E+00  0.24769192E+00
  0.50213042E-01  0.26554367E+00  0.16750079E+00
  0.55070793E-01  0.19107191E+00  0.36276570E+00
  0.24254584E+00  0.33051994E+00  0.34802517E+00
  0.88794413E+00  0.29982123E+00  0.45108438E+00
  0.23526215E+00  0.47663729E+00  0.47234098E+00
  0.83818889E-01  0.28609864E+00  0.66968301E+00
  0.29959864E+00  0.13442880E+00  0.54783469E+00
  0.97062662E-01  0.17638979E+00  0.76553871E+00