SYSTEM = Al
ENCUT = 200
IALGO = 48
LREAL = A
NELMIN = 4
PREC = HIGH

ISTART = 1
IBRION = 0
ISYM = 0
NBANDS = 1536
SIGMA = 0.109699
ISMEAR = -1
ISIF = 1
SMASS = 2
TEBEG = 1273
TEEND = 1273
LOPTICS = .TRUE.
NELM = 0
LWAVE = .FALSE.
LCHARG = .FALSE.
